data/CVRPLIB/Vrp-Set-XML100/instances/XML100_1312_18.vrp
NAME : XML100_1312_18
COMMENT : Generated by Queiroga, Sadykov, Uchoa, and Vidal (2021)
TYPE : CVRP
DIMENSION : 101
EDGE_WEIGHT_TYPE : EUC_2D
CAPACITY : 6
NODE_COORD_SECTION
1    426  95  
2    792  487 
3    274  450 
4    121  677 
5    733  661 
6    985  65  
7    880  77  
8    402  89  
9    426  717 
10   919  471 
11   988  205 
12   748  483 
13   383  87  
14   705  502 
15   602  296 
16   960  94  
17   746  457 
18   918  493 
19   880  191 
20   425  885 
21   38   185 
22   827  638 
23   671  532 
24   525  938 
25   687  76  
26   431  94  
27   918  410 
28   534  915 
29   628  487 
30   328  806 
31   754  695 
32   173  518 
33   680  545 
34   651  927 
35   454  261 
36   671  578 
37   569  509 
38   915  745 
39   968  556 
40   97   425 
41   847  946 
42   896  648 
43   992  764 
44   892  997 
45   11   391 
46   444  799 
47   951  413 
48   857  931 
49   613  848 
50   533  964 
51   564  210 
52   463  858 
53   569  912 
54   785  871 
55   556  967 
56   870  896 
57   897  435 
58   458  148 
59   986  176 
60   443  898 
61   931  526 
62   124  616 
63   205  178 
64   970  564 
65   285  185 
66   205  297 
67   56   288 
68   138  195 
69   421  366 
70   843  394 
71   798  832 
72   838  413 
73   722  952 
74   806  547 
75   253  942 
76   508  19  
77   664  487 
78   670  572 
79   809  389 
80   754  543 
81   538  528 
82   248  778 
83   212  827 
84   720  816 
85   256  313 
86   473  684 
87   183  856 
88   905  891 
89   595  403 
90   470  182 
91   978  110 
92   334  574 
93   918  498 
94   851  918 
95   625  685 
96   829  367 
97   819  979 
98   242  772 
99   55   416 
100  719  506 
101  754  970 
DEMAND_SECTION
1    0   
2    1   
3    1   
4    1   
5    1   
6    1   
7    1   
8    1   
9    1   
10   1   
11   1   
12   1   
13   1   
14   1   
15   1   
16   1   
17   1   
18   1   
19   1   
20   1   
21   1   
22   1   
23   1   
24   1   
25   1   
26   1   
27   1   
28   1   
29   1   
30   1   
31   1   
32   1   
33   1   
34   1   
35   1   
36   1   
37   1   
38   1   
39   1   
40   1   
41   1   
42   1   
43   1   
44   1   
45   1   
46   1   
47   1   
48   1   
49   1   
50   1   
51   1   
52   1   
53   1   
54   1   
55   1   
56   1   
57   1   
58   1   
59   1   
60   1   
61   1   
62   1   
63   1   
64   1   
65   1   
66   1   
67   1   
68   1   
69   1   
70   1   
71   1   
72   1   
73   1   
74   1   
75   1   
76   1   
77   1   
78   1   
79   1   
80   1   
81   1   
82   1   
83   1   
84   1   
85   1   
86   1   
87   1   
88   1   
89   1   
90   1   
91   1   
92   1   
93   1   
94   1   
95   1   
96   1   
97   1   
98   1   
99   1   
100  1   
101  1   
DEPOT_SECTION
1
-1
EOF
