data/CVRPLIB/Vrp-Set-XML100/solutions/XML100_1312_18.sol
Route #1: 27 23 49 54 52 48
Route #2: 67 20 66 44 98 39
Route #3: 2 31 61 3 91 68
Route #4: 33 72 100 96 43 40
Route #5: 16 11 1 79 99 13
Route #6: 26 46 9 17 92 56
Route #7: 37 42 87 55 47 93
Route #8: 97 81 82 86 74 29
Route #9: 85 51 59 19 45 8
Route #10: 28 77 35 32 22 76
Route #11: 4 30 70 53 83 94
Route #12: 25 75 12 7
Route #13: 10 58 90 5 15 6
Route #14: 34 80 36 88 14 50
Route #15: 64 62 65 84 89 57
Route #16: 78 71 69 95 18 24
Route #17: 73 21 41 63 38 60
Cost 23547
